c CNF file corresponding to a (partial) station packing problem.
p cnf 6382 198
1 2 3 4 5 6 7 8 9 10 11 12 13 14 0
-1 -2 0
-1 -3 0
-1 -4 0
-1 -5 0
-1 -6 0
-1 -7 0
-1 -8 0
-1 -9 0
-1 -10 0
-1 -11 0
-1 -12 0
-1 -13 0
-1 -14 0
-2 -3 0
-2 -4 0
-2 -5 0
-2 -6 0
-2 -7 0
-2 -8 0
-2 -9 0
-2 -10 0
-2 -11 0
-2 -12 0
-2 -13 0
-2 -14 0
-3 -4 0
-3 -5 0
-3 -6 0
-3 -7 0
-3 -8 0
-3 -9 0
-3 -10 0
-3 -11 0
-3 -12 0
-3 -13 0
-3 -14 0
-4 -5 0
-4 -6 0
-4 -7 0
-4 -8 0
-4 -9 0
-4 -10 0
-4 -11 0
-4 -12 0
-4 -13 0
-4 -14 0
-5 -6 0
-5 -7 0
-5 -8 0
-5 -9 0
-5 -10 0
-5 -11 0
-5 -12 0
-5 -13 0
-5 -14 0
-6 -7 0
-6 -8 0
-6 -9 0
-6 -10 0
-6 -11 0
-6 -12 0
-6 -13 0
-6 -14 0
-7 -8 0
-7 -9 0
-7 -10 0
-7 -11 0
-7 -12 0
-7 -13 0
-7 -14 0
-8 -9 0
-8 -10 0
-8 -11 0
-8 -12 0
-8 -13 0
-8 -14 0
-9 -10 0
-9 -11 0
-9 -12 0
-9 -13 0
-9 -14 0
-10 -11 0
-10 -12 0
-10 -13 0
-10 -14 0
-11 -12 0
-11 -13 0
-11 -14 0
-12 -13 0
-12 -14 0
-13 -14 0
6368 6369 6370 6371 6372 6373 6374 6375 6376 6377 6378 6379 6380 6381 6382 0
-6368 -6369 0
-6368 -6370 0
-6368 -6371 0
-6368 -6372 0
-6368 -6373 0
-6368 -6374 0
-6368 -6375 0
-6368 -6376 0
-6368 -6377 0
-6368 -6378 0
-6368 -6379 0
-6368 -6380 0
-6368 -6381 0
-6368 -6382 0
-6369 -6370 0
-6369 -6371 0
-6369 -6372 0
-6369 -6373 0
-6369 -6374 0
-6369 -6375 0
-6369 -6376 0
-6369 -6377 0
-6369 -6378 0
-6369 -6379 0
-6369 -6380 0
-6369 -6381 0
-6369 -6382 0
-6370 -6371 0
-6370 -6372 0
-6370 -6373 0
-6370 -6374 0
-6370 -6375 0
-6370 -6376 0
-6370 -6377 0
-6370 -6378 0
-6370 -6379 0
-6370 -6380 0
-6370 -6381 0
-6370 -6382 0
-6371 -6372 0
-6371 -6373 0
-6371 -6374 0
-6371 -6375 0
-6371 -6376 0
-6371 -6377 0
-6371 -6378 0
-6371 -6379 0
-6371 -6380 0
-6371 -6381 0
-6371 -6382 0
-6372 -6373 0
-6372 -6374 0
-6372 -6375 0
-6372 -6376 0
-6372 -6377 0
-6372 -6378 0
-6372 -6379 0
-6372 -6380 0
-6372 -6381 0
-6372 -6382 0
-6373 -6374 0
-6373 -6375 0
-6373 -6376 0
-6373 -6377 0
-6373 -6378 0
-6373 -6379 0
-6373 -6380 0
-6373 -6381 0
-6373 -6382 0
-6374 -6375 0
-6374 -6376 0
-6374 -6377 0
-6374 -6378 0
-6374 -6379 0
-6374 -6380 0
-6374 -6381 0
-6374 -6382 0
-6375 -6376 0
-6375 -6377 0
-6375 -6378 0
-6375 -6379 0
-6375 -6380 0
-6375 -6381 0
-6375 -6382 0
-6376 -6377 0
-6376 -6378 0
-6376 -6379 0
-6376 -6380 0
-6376 -6381 0
-6376 -6382 0
-6377 -6378 0
-6377 -6379 0
-6377 -6380 0
-6377 -6381 0
-6377 -6382 0
-6378 -6379 0
-6378 -6380 0
-6378 -6381 0
-6378 -6382 0
-6379 -6380 0
-6379 -6381 0
-6379 -6382 0
-6380 -6381 0
-6380 -6382 0
-6381 -6382 0
